TYPE : Vertex Cover
DIMENSION: 32
EDGE_DATA_SECTION:
0 5
0 13
0 23
1 5
1 12
1 19
1 20
1 29
2 5
2 8
2 12
2 16
3 28
4 17
4 20
5 31
6 21
6 29
7 11
7 24
8 14
8 15
9 19
9 27
10 20
11 22
11 26
11 29
11 30
13 14
13 20
15 19
16 18
16 22
17 29
17 30
18 28
20 24
20 30
24 25
24 27
24 31
25 29
27 29
27 30
27 31
28 29
-1
VERTEX_DEGREE:
3.0 5.0 4.0 1.0 2.0 4.0 2.0 2.0 3.0 2.0 1.0 5.0 2.0 3.0 2.0 2.0 3.0 3.0 2.0 3.0 6.0 1.0 2.0 1.0 5.0 2.0 1.0 5.0 3.0 7.0 4.0 3.0
VERTEX_COVER:
0 5 6 8 11 12 14 16 17 19 20 24 27 28 29
EOF
